%%% static parameters %%%
timespan = 1;
Clients_N = [500];
Demand_W = [20];
Lt0 = [4];
Lt1 = [4];
SS_ = [0.85];
DS_D = [6];
K = [200];
MA = [500];
HC = [0.05];
%%% dynamic parameters %%%
lost_ratio_sales_ret_th = 0.0009519752279803;
lost_ratio_sales_ret_w = 8;
lost_ratio_sales_dis_th = 0.000915437036908522;
lost_ratio_sales_dis_w = 58;
lost_ratio_sales_fac_th = 0.0007701706920476959;
lost_ratio_sales_fac_w = 63;
stock_customer_MA_mean_relative_th = 0.9870433619280607;
stock_customer_MA_mean_relative_w = 29;
stock_distributor_MA_mean_relative_th = 0.36333211587935565;
stock_distributor_MA_mean_relative_w = 92;
stock_retailer_MA_mean_relative_th = 0.5521607709680183;
stock_retailer_MA_mean_relative_w = 70;
stock_factory_MA_mean_relative_th = 0.5558835217651222;
stock_factory_MA_mean_relative_w = 68;
